solution status: optimal solution found
objective value:                                    0
shell_i_one.thingy.devices[0].thingy.v12                    1 	(obj:0)
shell_j_one.thingy.devices[3].thingy.v1                    1 	(obj:0)
shell_j_one.thingy.devices[0].thingy.v2                    1 	(obj:0)
shell_i_one.thingy.devices[0].thingy.v0                    1 	(obj:0)
shell_j_one.thingy.devices[0].thingy.v8                    1 	(obj:0)
shell_j_one.thingy.devices[0].thingy.v11                    1 	(obj:0)
shell_i_one.thingy.devices[2].thingy.v3                    1 	(obj:0)
shell_j_one.thingy.devices[2].thingy.v3                    1 	(obj:0)
shell_i_one.thingy.devices[1].thingy.v12                    1 	(obj:0)
shell_j_one.thingy.devices[3].thingy.v8                    1 	(obj:0)
shell_i_one.thingy.devices[2].thingy.v11                    1 	(obj:0)
shell_j_one.thingy.devices[3].thingy.v3                    1 	(obj:0)
shell_i_one.thingy.devices[0].thingy.v3                    1 	(obj:0)
shell_j_one.thingy.devices[1].thingy.v11                    1 	(obj:0)
shell_i_one.thingy.devices[3].thingy.v0                    1 	(obj:0)
shell_i_one.thingy.devices[1].thingy.v3                    1 	(obj:0)
shell_j_one.thingy.devices[1].thingy.v8                    1 	(obj:0)
shell_i_one.thingy.devices[0].thingy.v1                    1 	(obj:0)
shell_i_one.thingy.devices[3].thingy.v11                    1 	(obj:0)
shell_i_one.thingy.devices[2].thingy.v0                    1 	(obj:0)
shell_i_one.thingy.devices[2].thingy.v8                    1 	(obj:0)
shell_i_one.thingy.devices[2].thingy.v12                    1 	(obj:0)
shell_j_one.thingy.devices[1].thingy.v2                    1 	(obj:0)
shell_j_one.thingy.devices[2].thingy.v2                    1 	(obj:0)
shell_j_one.thingy.devices[2].thingy.v1                    1 	(obj:0)
shell_i_one.thingy.devices[1].thingy.v1                    1 	(obj:0)
shell_i_one.thingy.devices[3].thingy.v12                    1 	(obj:0)
shell_j_one.thingy.devices[3].thingy.v2                    1 	(obj:0)
shell_i_one.thingy.devices[1].thingy.v0                    1 	(obj:0)
one.thingy.devices[0].thingy.v3_y                   12 	(obj:0)
one.thingy.devices[0].thingy.v3_z                   25 	(obj:0)
one.thingy.devices[0].thingy.v8_z                   20 	(obj:0)
one.thingy.devices[0].thingy.v12_z                   25 	(obj:0)
one.thingy.devices[1].thingy.v11_x                  -10 	(obj:0)
one.thingy.devices[1].thingy.v11_y                   13 	(obj:0)
one.thingy.devices[1].thingy.v11_z                   23 	(obj:0)
one.thingy.devices[0].thingy.v12_x                  -13 	(obj:0)
one.thingy.devices[0].thingy.v11_x                   -6 	(obj:0)
one.thingy.devices[3].thingy.v0_x                  -13 	(obj:0)
one.thingy.devices[3].thingy.v0_y                   -3 	(obj:0)
one.thingy.devices[3].thingy.v0_z                   21 	(obj:0)
one.thingy.devices[0].thingy.v11_y                   13 	(obj:0)
one.thingy.devices[0].thingy.v11_z                   19 	(obj:0)
one.thingy.devices[1].thingy.v3_x                  -13 	(obj:0)
one.thingy.devices[1].thingy.v3_y                    9 	(obj:0)
one.thingy.devices[1].thingy.v3_z                   25 	(obj:0)
one.thingy.devices[0].thingy.v2_x                  -10 	(obj:0)
one.thingy.devices[0].thingy.v2_y                   13 	(obj:0)
one.thingy.devices[1].thingy.v8_x                   -9 	(obj:0)
one.thingy.devices[1].thingy.v8_y                   13 	(obj:0)
one.thingy.devices[1].thingy.v8_z                   24 	(obj:0)
one.thingy.devices[2].thingy.v3_x                  -13 	(obj:0)
one.thingy.devices[2].thingy.v3_y                   13 	(obj:0)
one.thingy.devices[0].thingy.v1_x                  -13 	(obj:0)
one.thingy.devices[0].thingy.v1_y                   10 	(obj:0)
one.thingy.devices[0].thingy.v1_z                   25 	(obj:0)
one.thingy.devices[2].thingy.v3_z                   21 	(obj:0)
one.thingy.devices[0].thingy.v2_z                   21 	(obj:0)
one.thingy.devices[3].thingy.v11_x                  -13 	(obj:0)
one.thingy.devices[3].thingy.v11_y                    7 	(obj:0)
one.thingy.devices[3].thingy.v11_z                   15 	(obj:0)
one.thingy.devices[0].thingy.v12_y                    3 	(obj:0)
one.thingy.devices[1].thingy.v12_x                  -13 	(obj:0)
one.thingy.devices[2].thingy.v0_x                  -13 	(obj:0)
one.thingy.devices[2].thingy.v0_z                   21 	(obj:0)
one.thingy.devices[1].thingy.v12_y                    3 	(obj:0)
one.thingy.devices[1].thingy.v12_z                   21 	(obj:0)
one.thingy.devices[2].thingy.v8_x                  -13 	(obj:0)
one.thingy.devices[2].thingy.v8_y                   12 	(obj:0)
one.thingy.devices[2].thingy.v8_z                   20 	(obj:0)
one.thingy.devices[3].thingy.v1_x                   -7 	(obj:0)
one.thingy.devices[0].thingy.v0_x                  -13 	(obj:0)
one.thingy.devices[2].thingy.v12_x                  -13 	(obj:0)
one.thingy.devices[2].thingy.v12_y                   -1 	(obj:0)
one.thingy.devices[2].thingy.v12_z                   21 	(obj:0)
one.thingy.devices[3].thingy.v8_x                   -9 	(obj:0)
one.thingy.devices[3].thingy.v8_y                   13 	(obj:0)
one.thingy.devices[1].thingy.v2_x                  -10 	(obj:0)
one.thingy.devices[1].thingy.v2_y                   13 	(obj:0)
one.thingy.devices[1].thingy.v2_z                   25 	(obj:0)
one.thingy.devices[3].thingy.v8_z                   16 	(obj:0)
one.thingy.devices[0].thingy.v0_y                    3 	(obj:0)
one.thingy.devices[2].thingy.v2_x                  -12 	(obj:0)
one.thingy.devices[2].thingy.v2_y                   13 	(obj:0)
one.thingy.devices[2].thingy.v2_z                   25 	(obj:0)
one.thingy.devices[0].thingy.v0_z                   22 	(obj:0)
one.thingy.devices[2].thingy.v11_x                  -13 	(obj:0)
one.thingy.devices[2].thingy.v1_x                   -9 	(obj:0)
one.thingy.devices[2].thingy.v1_y                   13 	(obj:0)
one.thingy.devices[2].thingy.v1_z                   23 	(obj:0)
one.thingy.devices[2].thingy.v11_y                    9 	(obj:0)
one.thingy.devices[2].thingy.v11_z                   19 	(obj:0)
one.thingy.devices[1].thingy.v1_x                  -13 	(obj:0)
one.thingy.devices[1].thingy.v1_y                   11 	(obj:0)
one.thingy.devices[1].thingy.v1_z                   25 	(obj:0)
one.thingy.devices[3].thingy.v1_y                   13 	(obj:0)
one.thingy.devices[3].thingy.v1_z                   19 	(obj:0)
one.thingy.devices[3].thingy.v12_x                  -13 	(obj:0)
one.thingy.devices[3].thingy.v12_y                   -3 	(obj:0)
one.thingy.devices[3].thingy.v12_z                   17 	(obj:0)
one.thingy.devices[3].thingy.v3_x                   -9 	(obj:0)
one.thingy.devices[3].thingy.v3_y                   13 	(obj:0)
one.thingy.devices[3].thingy.v2_x                   -8 	(obj:0)
one.thingy.devices[3].thingy.v2_y                   13 	(obj:0)
one.thingy.devices[3].thingy.v2_z                   21 	(obj:0)
one.thingy.devices[3].thingy.v3_z                   19 	(obj:0)
one.thingy.devices[0].thingy.v8_x                   -5 	(obj:0)
one.thingy.devices[1].thingy.v0_x                  -13 	(obj:0)
one.thingy.devices[1].thingy.v0_y                    4 	(obj:0)
one.thingy.devices[1].thingy.v0_z                   25 	(obj:0)
one.thingy.devices[0].thingy.v8_y                   13 	(obj:0)
one.thingy.devices[0].thingy.v3_x                  -13 	(obj:0)
